(set-info :smt-lib-version 2.6)
(set-logic QF_FP)
(set-info :source |Random FP created by PyMPF|)
(set-info :license |https://www.gnu.org/licenses/gpl-3.0.html|)
(set-info :category random)
(set-info :status unsat)
(declare-const x Float32)
(assert (= x (fp #b0 #b10010010 #b00000101010110111011000)))
;; x should be Float32(0x4902ADD8 [Rational(1070523, 2), 535261.500000])

(declare-const y Float32)
(assert (= y ((_ to_fp 8 24) #x00415EB9)))
;; y should be Float32(0x00415EB9 [Rational(4284089, 713623846352979940529142984724747568191373312), 0.000000])

(declare-const z Float32)
(assert (= z (fp #b1 #b01000000 #b10110000100011110111111)))
;; z should be Float32(0xA05847BF [Rational(-14174143, 77371252455336267181195264), -0.000000])

(declare-const result Float32)
(assert (= result (fp.fma RTN x y z)))
(assert (not (= result ((_ to_fp 8 24) #xA05847BF))))
(check-sat)
(exit)
